Data path: /scratch/opt/lxu/CFLG/benchmarks/tree_B
Instance: treeB.700.70
Result path: /scratch/opt/lxu/CFLG/results/tree_B
Solver: Gurobi
Time limit: 7200
Formulation: LEFPAD
Cover: Large
julia --project=. src/main.jl /scratch/opt/lxu/CFLG/benchmarks/tree_B treeB.700.70 /scratch/opt/lxu/CFLG/results/tree_B Gurobi 7200 LEFPAD Large
The latest version of Julia in the `release` channel is 1.11.5+0.x64.linux.gnu. You currently have `1.11.4+0.x64.linux.gnu` installed. Run:

  juliaup update

in your terminal shell to install Julia 1.11.5+0.x64.linux.gnu and update the `release` channel to that version.
/scratch/opt/lxu/CFLG/benchmarks/tree_B Gurobi 7200.0 /scratch/opt/lxu/CFLG/results/tree_B treeB.700.70 LEFPAD Large
/scratch/opt/lxu/CFLG/benchmarks/tree_B/treeB.700.70

 read graph
data loaded

problem_graph/original graph: node: 700/700 edge: 769/769 dlt: 2.9952349478074476 break_avg_len: 1.4976174739037238 break_max_len: 1.9999766211030285Vbar/V, Ebar/E(300, 700, 369, 769)
Set parameter TokenServer to value "solice01.zib.de"
Set parameter Threads to value 1
Set parameter OutputFlag to value 1
Gurobi Optimizer version 12.0.1 build v12.0.1rc0 (linux64 - "Debian GNU/Linux 12 (bookworm)")

CPU model: Intel(R) Xeon(R) Gold 5122 CPU @ 3.60GHz, instruction set [SSE2|AVX|AVX2|AVX512]
Thread count: 8 physical cores, 16 logical processors, using up to 1 threads

Non-default parameters:
Threads  1

Optimize a model with 909 rows, 1467 columns and 2445 nonzeros
Model fingerprint: 0xb7005624
Coefficient statistics:
  Matrix range     [1e+00, 1e+00]
  Objective range  [1e+00, 1e+00]
  Bounds range     [1e+00, 1e+00]
  RHS range        [1e+00, 1e+00]
Presolve removed 909 rows and 1467 columns
Presolve time: 0.00s
Presolve: All rows and columns removed
Iteration    Objective       Primal Inf.    Dual Inf.      Time
       0    1.2000000e+02   0.000000e+00   0.000000e+00      0s

Solved in 0 iterations and 0.00 seconds (0.00 work units)
Optimal objective  1.200000000e+02

User-callback calls 35, time in user-callback 0.01 sec
elapsed CPU time: 1.582169 seconds
Set parameter TokenServer to value "solice01.zib.de"
Set parameter Threads to value 1
Set parameter OutputFlag to value 1
Set parameter MIPGap to value 0.0001
Set parameter MIPGapAbs to value 0.999998
Set parameter TimeLimit to value 7198.417831

 more cuts: false 2.9952349478074476 false
is_attach:trueformulation:LEFPAD0 489 0

 model loaded

Gurobi Optimizer version 12.0.1 build v12.0.1rc0 (linux64 - "Debian GNU/Linux 12 (bookworm)")

CPU model: Intel(R) Xeon(R) Gold 5122 CPU @ 3.60GHz, instruction set [SSE2|AVX|AVX2|AVX512]
Thread count: 8 physical cores, 16 logical processors, using up to 1 threads

Non-default parameters:
TimeLimit  7198.417831
MIPGapAbs  0.999998
Threads  1

Optimize a model with 19568 rows, 13584 columns and 54957 nonzeros
Model fingerprint: 0x1a513199
Variable types: 6582 continuous, 7002 integer (7002 binary)
Coefficient statistics:
  Matrix range     [5e-04, 3e+00]
  Objective range  [1e+00, 1e+00]
  Bounds range     [1e-02, 3e+00]
  RHS range        [1e-06, 3e+00]
Presolve removed 9164 rows and 5257 columns
Presolve time: 0.21s
Presolved: 10404 rows, 8327 columns, 32865 nonzeros
Variable types: 4189 continuous, 4138 integer (4138 binary)
Found heuristic solution: objective 483.0000000
Found heuristic solution: objective 482.0000000

Root relaxation: objective 1.458741e+02, 6060 iterations, 0.12 seconds (0.13 work units)

    Nodes    |    Current Node    |     Objective Bounds      |     Work
 Expl Unexpl |  Obj  Depth IntInf | Incumbent    BestBd   Gap | It/Node Time

     0     0  145.87408    0  815  482.00000  145.87408  69.7%     -    0s
H    0     0                     363.0000000  145.87408  59.8%     -    0s
H    0     0                     360.0000000  145.87408  59.5%     -    0s
H    0     0                     317.0000000  145.87408  54.0%     -    0s
H    0     0                     315.0000000  145.87408  53.7%     -    0s
H    0     0                     312.0000000  145.87408  53.2%     -    0s
     0     0  156.35274    0 1088  312.00000  156.35274  49.9%     -    1s
     0     0  156.48776    0 1084  312.00000  156.48776  49.8%     -    1s
     0     0  156.48776    0 1083  312.00000  156.48776  49.8%     -    1s
H    0     0                     260.0000000  156.50238  39.8%     -    1s
H    0     0                     249.0000000  156.50238  37.1%     -    1s
H    0     0                     235.0000000  156.50238  33.4%     -    1s
     0     0  156.79087    0 1113  235.00000  156.79087  33.3%     -    1s
     0     0  156.79697    0 1156  235.00000  156.79697  33.3%     -    1s
     0     0  156.79734    0 1143  235.00000  156.79734  33.3%     -    1s
     0     0  156.79737    0 1140  235.00000  156.79737  33.3%     -    1s
     0     0  156.83406    0 1143  235.00000  156.83406  33.3%     -    1s
     0     0  156.83620    0 1155  235.00000  156.83620  33.3%     -    1s
     0     0  156.83623    0 1151  235.00000  156.83623  33.3%     -    1s
     0     0  159.34002    0 1179  235.00000  159.34002  32.2%     -    1s
     0     0  159.34087    0 1181  235.00000  159.34087  32.2%     -    1s
     0     0  159.58826    0 1290  235.00000  159.58826  32.1%     -    2s
     0     0  159.61779    0 1288  235.00000  159.61779  32.1%     -    2s
     0     0  159.62236    0 1291  235.00000  159.62236  32.1%     -    2s
     0     0  159.62296    0 1298  235.00000  159.62296  32.1%     -    2s
     0     0  164.85453    0 1179  235.00000  164.85453  29.8%     -    3s
     0     0  164.85768    0 1148  235.00000  164.85768  29.8%     -    3s
H    0     0                     227.0000000  164.98052  27.3%     -    3s
     0     0  165.00291    0 1157  227.00000  165.00291  27.3%     -    3s
     0     0  165.00761    0 1164  227.00000  165.00761  27.3%     -    3s
     0     0  168.19007    0 1031  227.00000  168.19007  25.9%     -    4s
     0     0  168.19950    0 1013  227.00000  168.19950  25.9%     -    4s
H    0     0                     226.0000000  168.29929  25.5%     -    4s
H    0     0                     225.0000000  168.29929  25.2%     -    4s
     0     0  168.52927    0 1047  225.00000  168.52927  25.1%     -    4s
     0     0  168.60641    0 1097  225.00000  168.60641  25.1%     -    4s
     0     0  168.60791    0 1102  225.00000  168.60791  25.1%     -    4s
     0     0  168.61146    0 1097  225.00000  168.61146  25.1%     -    4s
     0     0  169.07514    0 1008  225.00000  169.07514  24.9%     -    4s
H    0     0                     222.0000000  169.12019  23.8%     -    4s
H    0     0                     221.0000000  169.12019  23.5%     -    4s
     0     0  169.12176    0 1056  221.00000  169.12176  23.5%     -    4s
     0     0  169.12366    0 1071  221.00000  169.12366  23.5%     -    4s
     0     0  169.36109    0 1042  221.00000  169.36109  23.4%     -    5s
H    0     0                     213.0000000  169.40662  20.5%     -    5s
H    0     0                     211.0000000  169.40662  19.7%     -    5s
     0     0  169.40662    0 1043  211.00000  169.40662  19.7%     -    5s
     0     0  169.40662    0 1055  211.00000  169.40662  19.7%     -    5s
     0     0  169.41268    0 1096  211.00000  169.41268  19.7%     -    5s
     0     0  169.42738    0 1096  211.00000  169.42738  19.7%     -    5s
     0     0  169.43174    0 1087  211.00000  169.43174  19.7%     -    5s
     0     0  169.46752    0 1153  211.00000  169.46752  19.7%     -    5s
     0     0  169.46752    0  929  211.00000  169.46752  19.7%     -    6s
H    0     0                     208.0000000  169.47909  18.5%     -    6s
H    0     0                     206.0000000  169.47909  17.7%     -    7s
H    0     0                     205.0000000  169.47909  17.3%     -    7s
H    0     0                     204.0000000  169.47909  16.9%     -    7s
H    0     0                     200.0000000  169.47909  15.3%     -    7s
H    0     0                     199.0000000  169.47909  14.8%     -    7s
H    0     0                     198.0000000  169.47909  14.4%     -    7s
H    0     0                     197.0000000  169.47909  14.0%     -    7s
H    0     0                     196.0000000  169.47909  13.5%     -    7s
     0     2  169.47909    0  909  196.00000  169.47909  13.5%     -    7s
H   26    26                     194.0000000  169.47909  12.6%   238    9s
    81    81  175.32808   54  623  194.00000  169.47909  12.6%   144   10s
H  487   443                     193.0000000  169.65321  12.1%  81.0   14s
   496   452  188.03873  206  282  193.00000  169.65321  12.1%  80.0   15s
   562   494  178.88733   84  775  193.00000  173.03472  10.3%  81.8   20s
   585   509  190.09127  217  700  193.00000  178.08513  7.73%  78.6   25s
   602   520  179.36779   14  675  193.00000  179.36779  7.06%  76.4   30s
H  609   497                     192.0000000  180.22229  6.13%  75.5   32s
H  609   471                     190.9999999  180.22229  5.64%  75.5   32s
H  620   453                     189.0000000  180.48687  4.50%  74.2   35s
   646   471  182.99409   69  387  189.00000  182.99409  3.18%  71.2   40s
   662   481  183.21304   84  469  189.00000  183.21304  3.06%  69.5   45s
   679   493  183.35934   51  641  189.00000  183.35934  2.98%  67.7   50s
H  701   479                     188.0000000  183.67316  2.30%  65.6   55s
   721   494  184.04682  102  742  188.00000  184.04682  2.10%   537   60s
   736   504  184.05449   74  382  188.00000  184.05449  2.10%   526   65s
   754   516  184.26362  112  331  188.00000  184.26362  1.99%   513   70s
   819   544  186.13151   58  188  188.00000  184.26362  1.99%   591   75s
   964   603  185.16667   34  285  188.00000  184.53854  1.84%   520   80s
  1118   651  186.26344   36  315  188.00000  184.58292  1.82%   464   85s
  1247   668  186.50000   42  260  188.00000  184.76294  1.72%   430   90s
  1301   673  184.95283   27  461  188.00000  184.79584  1.70%   417   95s
  1469   711  186.61111   35  344  188.00000  184.85551  1.67%   385  100s
  1670   740  185.28450   31  354  188.00000  184.89286  1.65%   354  105s
  1980   786  185.34590   31  412  188.00000  184.94444  1.63%   318  110s
  2290   799  185.56280   32  359  188.00000  184.97778  1.61%   292  115s
  2635   963  186.06957   38  365  188.00000  185.07539  1.56%   271  120s
  2994  1098  186.10865   40  419  188.00000  185.13884  1.52%   252  125s
  3353  1208  185.87500   32  333  188.00000  185.20000  1.49%   238  130s
  3712  1321  185.75189   38  306  188.00000  185.25000  1.46%   227  135s
  3997  1428  185.93380   30  365  188.00000  185.27353  1.45%   220  140s
  4312  1552  186.75000   31  323  188.00000  185.30283  1.43%   215  146s
  4681  1670  185.83333   30  440  188.00000  185.33333  1.42%   206  150s
  4924  1743  186.42869   33  472  188.00000  185.35835  1.41%   204  156s
  5240  1836  186.81288   44  347  188.00000  185.37714  1.40%   199  160s
  5617  1954  185.77885   37  366  188.00000  185.41667  1.37%   196  165s
  5944  2043  185.74995   37  390  188.00000  185.44765  1.36%   194  170s
  6308  2151  186.60000   33  343  188.00000  185.47778  1.34%   190  175s
  6634  2240  186.58333   37  246  188.00000  185.50641  1.33%   187  180s
  6949  2357  187.00000   37  308  188.00000  185.52487  1.32%   185  185s
  7270  2429  187.00000   36  338  188.00000  185.56207  1.30%   183  190s
  7554  2499  186.03333   34  387  188.00000  185.59167  1.28%   182  195s
  7900  2597  185.86681   34  462  188.00000  185.61706  1.27%   180  200s
  8264  2709  186.29256   33  433  188.00000  185.63453  1.26%   178  205s
  8648  2839  185.80000   31  494  188.00000  185.64444  1.25%   176  210s
  8991  2927  185.69275   32  384  188.00000  185.66667  1.24%   176  215s
  9378  3027  186.66219   31  464  188.00000  185.67864  1.23%   175  220s
  9581  3074  186.06574   45  337  188.00000  185.69144  1.23%   174  225s
  9984  3155  187.00000   46  319  188.00000  185.70833  1.22%   173  230s
 10203  3188  186.50000   36  929  188.00000  185.72222  1.21%   172  270s
 10214  3195  187.00000   46  302  188.00000  185.72222  1.21%   172  275s
 10219  3199  186.83333   39  353  188.00000  185.72222  1.21%   172  280s
 10225  3203  186.53581   41  449  188.00000  185.72222  1.21%   172  285s
 10229  3205  187.00000   44  472  188.00000  185.72222  1.21%   172  290s
 10234  3209  186.77885   37  374  188.00000  185.72222  1.21%   172  296s
 10240  3213  186.25000   38  481  188.00000  185.72222  1.21%   172  300s
 10248  3218  186.70000   34  296  188.00000  185.72222  1.21%   172  305s
 10258  3225  186.59188   37  370  188.00000  185.72222  1.21%   171  310s
 10264  3229  186.33654   54  403  188.00000  185.72222  1.21%   171  315s
 10273  3235  186.50735   39  361  188.00000  185.72222  1.21%   171  320s
 10280  3239  187.00000   44  329  188.00000  185.72222  1.21%   171  325s
 10288  3245  186.66667   35  286  188.00000  185.72222  1.21%   171  330s
 10294  3249  186.57143   34  294  188.00000  185.72222  1.21%   171  335s
 10299  3252  186.70000   33  327  188.00000  185.72222  1.21%   171  341s
 10354  3261  185.86523   37  346  188.00000  185.72222  1.21%   199  345s
 10465  3247  186.54972   42  383  188.00000  186.21091  0.95%   199  350s
 10573  3226  186.54449   47  311  188.00000  186.33333  0.89%   199  355s
 10666  3199  186.61979   45  266  188.00000  186.50000  0.80%   199  360s
 10755  3180  186.57322   52  309  188.00000  186.51245  0.79%   199  365s
 10830  3154  186.98228   62  233  188.00000  186.52691  0.78%   199  370s
 10900  3125  186.94823   39  378  188.00000  186.55779  0.77%   199  375s
 11003  3077     cutoff   47       188.00000  186.65980  0.71%   200  380s

Cutting planes:
  Gomory: 19
  Lift-and-project: 77
  Cover: 127
  Implied bound: 276
  Clique: 4
  MIR: 594
  Mixing: 10
  StrongCG: 1
  Flow cover: 780
  GUB cover: 162
  Zero half: 167
  RLT: 214
  Relax-and-lift: 50
  BQP: 60
  PSD: 1

Explored 11115 nodes (2287977 simplex iterations) in 384.58 seconds (299.12 work units)
Thread count was 1 (of 16 available processors)

Solution count 10: 188 189 191 ... 199

Optimal solution found (tolerance 1.00e-04)
Best objective 1.880000000000e+02, best bound 1.880000000000e+02, gap 0.0000%

User-callback calls 128645, time in user-callback 0.17 sec

 sepatime0 0 0
188.0Stat(MathOptInterface.OPTIMAL, 188.0, 188.0, 0.0, 0.0, 1.582169, 384.5839719772339, 11115, Main.CFLG.LEFPAD, "", #undef)
ERROR: LoadError: SystemError: opening file "/scratch/opt/lxu/CFLG/results/tree_B/treeB.700.70.LEFPAD.Large": No such file or directory
Stacktrace:
 [1] systemerror(p::String, errno::Int32; extrainfo::Nothing)
   @ Base ./error.jl:176
 [2] systemerror
   @ ./error.jl:175 [inlined]
 [3] open(fname::String; lock::Bool, read::Nothing, write::Nothing, create::Nothing, truncate::Bool, append::Nothing)
   @ Base ./iostream.jl:295
 [4] open
   @ ./iostream.jl:277 [inlined]
 [5] open(fname::String, mode::String; lock::Bool)
   @ Base ./iostream.jl:358
 [6] open
   @ ./iostream.jl:357 [inlined]
 [7] main(args::Vector{String})
   @ Main /scratch/opt/lxu/CFLG/src/main.jl:51
 [8] top-level scope
   @ /scratch/opt/lxu/CFLG/src/main.jl:57
in expression starting at /scratch/opt/lxu/CFLG/src/main.jl:57
srun: error: htc-cmp465: task 0: Exited with exit code 1
